num_offers = 25;
num_halls = 10;
start=[65,30,20,39,25,12,19,41,62,75,4,59,7,10,40,28,15,15,29,51,49,2,16,13,9];
end=[94,66,64,92,27,75,77,66,68,78,51,83,16,13,78,98,99,75,97,82,60,41,76,82,77];
price=[486,2799,1864,4229,299,5731,820,2330,473,221,512,801,613,265,3680,2079,7050,1490,5971,1797,684,3213,1973,3343,1242];
requirement=[800,870,267,390,544,635,327,515,580,677,531,920,597,304,236,880,326,745,946,614,647,936,901,444,409];
capacity=[729,414,962,230,300,938,336,662,998,543];
